Mack/Bortfeldt(2008)
Bin-Packing-Problem
BP-RG/SBSBPP/SSSCSP
Testcase-ID	9
Problem-ID	51
no_item_types	15
no_items	1463
CONTAINER_DATA (l,w,h)	432	79	1
ITEMS_DATA:
Type	x	y	z	no_items
1	60	49	1	84
2	47	33	1	94
3	55	24	1	106
4	46	27	1	99
5	55	21	1	77
6	49	23	1	81
7	47	22	1	113
8	33	31	1	98
9	54	15	1	107
10	42	15	1	90
11	40	14	1	115
12	17	12	1	91
13	16	12	1	110
14	16	11	1	102
15	13	13	1	96
